Route #1: 6 33 73 1 43 41 42 64 22 61 28 62
Route #2: 68 2 74 21 69 71 60 70 20 37 36 47 48 30
Route #3: 75 4 67
Route #4: 46 8 19 54 13 57 15 5 29 45 27 52 34
Route #5: 7 35 53 14 59 66 11 65 38
Route #6: 26 58 10 31 72 39 9 32 40 12
Route #7: 51 16 63 23 56 49 24 18 55 25 50 44 3 17
Cost 685
Time 0.114741
Tempo = 0.12740329996449873